
Gurobi 6.0.4 (win64) logging started 06/21/15 19:05:32

Read LP format model from file C:\MT\repository\VRPTWMS\instances\mip\fuel\N4-C_DV100-C_SV30_F6_9_No_1.lp
Reading time = 0.01 seconds
(null): 129 rows, 72 columns, 447 nonzeros
Optimize a model with 129 rows, 72 columns and 447 nonzeros
Model has 64 quadratic constraints
Coefficient statistics:
  Matrix range    [1e+00, 1e+06]
  Objective range [1e+05, 1e+07]
  Bounds range    [1e+00, 1e+06]
  RHS range       [1e+00, 1e+06]
Presolve removed 40 rows and 20 columns
Presolve time: 0.00s
Presolved: 169 rows, 92 columns, 775 nonzeros
Variable types: 40 continuous, 52 integer (39 binary)
Found heuristic solution: objective 2.145500e+07

Root relaxation: objective 1.791491e+07, 18 iterations, 0.00 seconds

    Nodes    |    Current Node    |     Objective Bounds      |     Work
 Expl Unexpl |  Obj  Depth IntInf | Incumbent    BestBd   Gap | It/Node Time

     0     0 1.7915e+07    0   11 2.1455e+07 1.7915e+07  16.5%     -    0s
     0     0     cutoff    0      2.1455e+07 2.1455e+07  0.00%     -    0s

Cutting planes:
  Implied bound: 1
  Clique: 5
  MIR: 2

Explored 0 nodes (24 simplex iterations) in 0.00 seconds
Thread count was 2 (of 4 available processors)

Optimal solution found (tolerance 1.00e-04)
Best objective 2.145500000000e+07, best bound 2.145500000000e+07, gap 0.0%
k_c1	30000.0
k_c2	909999.0
k_c3	879998.0
k_c4	1000000.0
k_dN	-0.0
o_1	-0.0
o_2	-0.0
o_3	-0.0
o_4	-0.0
p_1	-0.0
p_2	-0.0
p_3	-0.0
p_4	-0.0
phi_c1	22719.0
phi_c2	39243.0
phi_c3	9460.0
phi_c4	49877.999999999985
phi_d0	60000.0
phi_dN	-0.0
tauD_c1	800000.0
tauD_c2	450000.0
tauD_c3	800000.0
tauD_c4	250000.0
tauD_d0	-0.0
tauD_dN	1000000.0
tauS_c1	835100.0
tauS_c2	849250.0
tauS_c3	35025.0
tauS_c4	29225.0
tauS_d0	-0.0
tauS_dN	230750.0
x_c1_dN	1.0
x_c2_c1	1.0
x_c3_dN	1.0
x_c4_c3	1.0
x_d0_c2	1.0
x_d0_c4	1.0
